Name = "inst06";
Distances = [|
	0, 80, 141, 22, 41, 127, 87, 48, 113, |
	60, 0, 93, 82, 199, 81, 53, 106, 57, |
	141, 83, 0, 129, 182, 4, 64, 189, 28, |
	22, 82, 129, 0, 55, 125, 65, 70, 101, |
	41, 99, 182, 55, 0, 178, 118, 11, 154, |
	137, 81, 4, 125, 178, 0, 60, 185, 124, |
	77, 63, 64, 65, 118, 60, 0, 125, 36, |
	48, 126, 189, 60, 58, 185, 125, 0, 161, |
	113, 57, 28, 101, 154, 24, 36, 191, 0, |
|];
Demand = [16,25,21,14,19,14,6,20];
Capacity = [200,100,200,300,200,100];
